BAYES
223
2 2 2 2 2 2 2 2 2 2 2 2 2 2 2 2 2 2 2 2 2 2 2 2 2 2 2 2 2 2 2 2 2 2 2 2 2 2 2 2 2 2 2 2 2 2 2 2 2 2 2 2 2 2 2 2 2 2 2 2 2 2 2 2 2 2 2 2 2 2 2 2 2 2 2 2 2 2 2 2 2 2 2 2 2 2 2 2 2 2 2 2 2 2 2 2 2 2 2 2 2 2 2 2 2 2 2 2 2 2 2 2 2 2 2 2 2 2 2 2 2 2 2 2 2 2 2 2 2 2 2 2 2 2 2 2 2 2 2 2 2 2 2 2 2 2 2 2 2 2 2 2 2 2 2 2 2 2 2 2 2 2 2 2 2 2 2 2 2 2 2 2 2 2 2 2 2 2 2 2 2 2 2 2 2 2 2 2 2 2 2 2 2 2 2 2 2 2 2 2 2 2 2 2 2 2 2 2 2 2 2 2 2 2 2 2 2 2 2 2 2 2 2
223
1 0
1 1
1 2
1 3
1 4
1 5
1 6
3 6 1 7
1 8
2 8 9
3 7 9 10
1 11
1 12
1 13
1 14
1 15
1 16
1 17
1 18
1 19
1 20
1 21
1 22
3 18 22 23
1 24
3 23 24 25
1 26
3 25 26 27
1 28
3 17 28 29
1 30
3 13 30 31
1 32
1 33
3 1 33 34
4 32 31 34 35
1 36
3 36 13 37
3 35 37 38
1 39
3 0 39 40
1 41
2 41 42
5 3 4 40 42 43
1 44
3 43 44 45
1 46
4 19 45 46 47
1 48
3 47 48 49
1 50
4 43 49 50 51
1 52
4 38 51 52 53
2 41 54
2 41 55
2 41 56
1 57
3 53 57 58
3 58 26 59
1 60
3 12 60 61
3 12 30 62
1 63
1 64
4 43 49 64 65
1 66
3 65 66 67
1 68
4 5 67 68 69
1 70
3 69 70 71
1 72
4 65 71 72 73
1 74
3 73 74 75
1 76
4 53 75 76 77
1 78
3 77 78 79
3 11 30 80
4 10 80 32 81
1 82
4 81 51 82 83
1 84
4 83 75 84 85
3 85 78 86
1 87
3 51 87 88
1 89
4 88 75 89 90
3 90 78 91
1 92
4 62 51 92 93
1 94
4 93 75 94 95
3 95 78 96
1 97
7 75 79 86 91 96 97 98
1 99
5 2 95 96 99 100
1 101
4 98 100 101 102
3 63 102 103
3 100 101 104
3 39 104 105
3 103 105 106
1 107
2 107 108
3 106 108 109
1 110
3 109 110 111
1 112
3 111 112 113
1 114
3 113 114 115
1 116
4 109 115 116 117
1 118
3 117 118 119
2 107 120
3 119 57 121
3 121 26 122
3 83 57 123
3 123 26 124
1 125
5 58 77 79 125 126
4 85 86 99 127
4 90 91 99 128
1 129
4 109 115 129 130
1 131
4 29 130 131 132
1 133
1 134
2 134 135
6 132 14 15 133 135 136
2 134 137
2 134 138
4 14 133 138 139
1 140
4 130 132 140 141
1 142
5 18 61 130 142 143
1 144
3 143 144 145
4 130 143 140 146
1 147
3 117 147 148
1 149
3 117 149 150
1 151
5 130 132 143 151 152
1 153
4 109 152 153 154
1 155
3 154 155 156
3 156 68 157
3 157 70 158
1 159
4 154 158 159 160
1 161
3 160 161 162
3 160 161 163
1 164
3 163 164 165
1 166
3 163 166 167
1 168
3 168 163 169
3 78 167 170
3 169 170 171
1 172
3 165 172 173
3 165 172 174
3 174 78 175
1 176
6 145 146 174 175 176 177
3 173 78 178
1 179
4 136 173 179 180
1 181
5 141 178 180 181 182
6 139 141 173 178 176 183
1 184
3 163 184 185
3 185 78 186
1 187
6 2 150 185 186 187 188
1 189
6 119 163 171 186 189 190
1 191
4 163 171 191 192
3 162 164 193
3 162 166 194
3 168 162 195
3 78 194 196
3 195 196 197
3 193 172 198
3 193 172 199
3 199 78 200
6 145 146 199 200 176 201
3 198 78 202
6 136 141 198 202 187 203
6 139 141 198 202 176 204
3 185 78 205
6 119 162 197 205 189 206
4 162 197 191 207
4 177 192 101 208
4 177 201 101 209
4 201 207 101 210
3 63 208 211
3 39 209 212
3 63 210 213
4 211 212 213 214
1 215
3 214 215 216
1 217
5 23 119 216 217 218
1 219
3 218 219 220
3 162 184 221
6 2 150 221 205 99 222

2
0.02 0.98
2
0.02 0.98
2
0.02 0.98
2
0.02 0.98
2
0.02 0.98
2
0.02 0.98
2
0.5 0.5
8
1.0 0.0 1.0 0.0 1.0 0.0 0.0001 0.9999
2
0.02 0.98
4
1.0 0.0 0.0001 0.9999
8
0.8 0.2 0.0 1.0 0.0 1.0 0.0 1.0
2
0.02 0.98
2
0.02 0.98
2
0.02 0.98
2
0.02 0.98
2
0.02 0.98
2
0.02 0.98
2
0.02 0.98
2
0.02 0.98
2
0.02 0.98
2
0.02 0.98
2
0.02 0.98
2
0.5 0.5
8
0.8 0.2 0.8 0.2 0.8 0.2 8e-05 0.99992
2
0.5 0.5
8
0.8 0.2 0.8 0.2 0.8 0.2 8e-05 0.99992
2
0.5 0.5
8
0.9 0.1 0.9 0.1 0.9 0.1 9e-05 0.99991
2
0.1 0.9
8
0.9 0.1 0.9 0.1 0.9 0.1 9e-05 0.99991
2
0.5 0.5
8
0.8 0.2 0.8 0.2 0.8 0.2 8e-05 0.99992
2
0.5 0.5
2
0.5 0.5
8
0.8 0.2 0.8 0.2 0.8 0.2 8e-05 0.99992
16
1.0 0.0 1.0 0.0 1.0 0.0 1.0 0.0 1.0 0.0 1.0 0.0 1.0 0.0 0.0001 0.9999
2
0.5 0.5
8
1.0 0.0 1.0 0.0 1.0 0.0 0.0001 0.9999
8
0.8 0.2 0.0 1.0 0.0 1.0 0.0 1.0
2
0.5 0.5
8
0.8 0.2 0.8 0.2 0.8 0.2 8e-05 0.99992
2
0.7 0.3
4
0.8 0.2 0.0 1.0
32
0.8 0.2 0.8 0.2 0.8 0.2 0.8 0.2 0.8 0.2 0.8 0.2 0.8 0.2 0.8 0.2 0.8 0.2 0.8 0.2 0.8 0.2 0.8 0.2 0.8 0.2 0.8 0.2 0.8 0.2 8e-05 0.99992
2
0.5 0.5
8
0.8 0.2 0.8 0.2 0.8 0.2 8e-05 0.99992
2
0.5 0.5
16
0.9 0.1 0.9 0.1 0.9 0.1 0.9 0.1 0.9 0.1 0.9 0.1 0.9 0.1 9e-05 0.99991
2
0.5 0.5
8
0.8 0.2 0.8 0.2 0.8 0.2 8e-05 0.99992
2
0.5 0.5
16
0.8 0.2 0.8 0.2 0.8 0.2 0.8 0.2 0.8 0.2 0.8 0.2 0.8 0.2 8e-05 0.99992
2
0.5 0.5
16
0.8 0.2 0.8 0.2 0.8 0.2 0.8 0.2 0.8 0.2 0.8 0.2 0.8 0.2 8e-05 0.99992
4
0.8 0.2 0.0 1.0
4
0.9 0.1 0.0 1.0
4
0.9 0.1 0.0 1.0
2
0.3 0.7
8
0.8 0.2 0.8 0.2 0.8 0.2 8e-05 0.99992
8
0.9 0.1 0.9 0.1 0.9 0.1 9e-05 0.99991
2
0.1 0.9
8
0.9 0.1 0.9 0.1 0.9 0.1 9e-05 0.99991
8
0.8 0.2 0.8 0.2 0.8 0.2 8e-05 0.99992
2
0.5 0.5
2
0.5 0.5
16
0.8 0.2 0.8 0.2 0.8 0.2 0.8 0.2 0.8 0.2 0.8 0.2 0.8 0.2 8e-05 0.99992
2
0.5 0.5
8
0.8 0.2 0.8 0.2 0.8 0.2 8e-05 0.99992
2
0.5 0.5
16
0.8 0.2 0.8 0.2 0.8 0.2 0.8 0.2 0.8 0.2 0.8 0.2 0.8 0.2 8e-05 0.99992
2
0.2 0.8
8
0.8 0.2 0.8 0.2 0.8 0.2 8e-05 0.99992
2
0.5 0.5
16
0.8 0.2 0.8 0.2 0.8 0.2 0.8 0.2 0.8 0.2 0.8 0.2 0.8 0.2 8e-05 0.99992
2
0.5 0.5
8
0.8 0.2 0.8 0.2 0.8 0.2 8e-05 0.99992
2
0.5 0.5
16
0.8 0.2 0.8 0.2 0.8 0.2 0.8 0.2 0.8 0.2 0.8 0.2 0.8 0.2 8e-05 0.99992
2
0.5 0.5
8
0.8 0.2 0.8 0.2 0.8 0.2 8e-05 0.99992
8
0.8 0.2 0.8 0.2 0.8 0.2 8e-05 0.99992
16
0.8 0.2 0.8 0.2 0.8 0.2 0.8 0.2 0.8 0.2 0.8 0.2 0.8 0.2 8e-05 0.99992
2
0.5 0.5
16
0.8 0.2 0.8 0.2 0.8 0.2 0.8 0.2 0.8 0.2 0.8 0.2 0.8 0.2 8e-05 0.99992
2
0.5 0.5
16
0.8 0.2 0.8 0.2 0.8 0.2 0.8 0.2 0.8 0.2 0.8 0.2 0.8 0.2 8e-05 0.99992
8
0.8 0.2 0.8 0.2 0.8 0.2 8e-05 0.99992
2
0.5 0.5
8
0.8 0.2 0.8 0.2 0.8 0.2 8e-05 0.99992
2
0.5 0.5
16
0.8 0.2 0.8 0.2 0.8 0.2 0.8 0.2 0.8 0.2 0.8 0.2 0.8 0.2 8e-05 0.99992
8
0.8 0.2 0.8 0.2 0.8 0.2 8e-05 0.99992
2
0.6 0.4
16
0.8 0.2 0.8 0.2 0.8 0.2 0.8 0.2 0.8 0.2 0.8 0.2 0.8 0.2 8e-05 0.99992
2
0.5 0.5
16
0.8 0.2 0.8 0.2 0.8 0.2 0.8 0.2 0.8 0.2 0.8 0.2 0.8 0.2 8e-05 0.99992
8
0.8 0.2 0.8 0.2 0.8 0.2 8e-05 0.99992
2
0.5 0.5
128
0.9 0.1 0.9 0.1 0.9 0.1 0.9 0.1 0.9 0.1 0.9 0.1 0.9 0.1 0.9 0.1 0.9 0.1 0.9 0.1 0.9 0.1 0.9 0.1 0.9 0.1 0.9 0.1 0.9 0.1 0.9 0.1 0.9 0.1 0.9 0.1 0.9 0.1 0.9 0.1 0.9 0.1 0.9 0.1 0.9 0.1 0.9 0.1 0.9 0.1 0.9 0.1 0.9 0.1 0.9 0.1 0.9 0.1 0.9 0.1 0.9 0.1 0.9 0.1 0.9 0.1 0.9 0.1 0.9 0.1 0.9 0.1 0.9 0.1 0.9 0.1 0.9 0.1 0.9 0.1 0.9 0.1 0.9 0.1 0.9 0.1 0.9 0.1 0.9 0.1 0.9 0.1 0.9 0.1 0.9 0.1 0.9 0.1 0.9 0.1 0.9 0.1 0.9 0.1 0.9 0.1 0.9 0.1 0.9 0.1 0.9 0.1 0.9 0.1 0.9 0.1 0.9 0.1 0.9 0.1 0.9 0.1 0.9 0.1 0.9 0.1 9e-05 0.99991
2
0.5 0.5
32
0.9 0.1 0.9 0.1 0.9 0.1 0.9 0.1 0.9 0.1 0.9 0.1 0.9 0.1 0.9 0.1 0.9 0.1 0.9 0.1 0.9 0.1 0.9 0.1 0.9 0.1 0.9 0.1 0.9 0.1 9e-05 0.99991
2
0.6 0.4
16
0.8 0.2 0.8 0.2 0.8 0.2 0.8 0.2 0.8 0.2 0.8 0.2 0.8 0.2 8e-05 0.99992
8
1.0 0.0 1.0 0.0 1.0 0.0 0.0001 0.9999
8
0.8 0.2 0.8 0.2 0.8 0.2 8e-05 0.99992
8
1.0 0.0 1.0 0.0 1.0 0.0 0.0001 0.9999
8
0.8 0.2 0.0 1.0 0.0 1.0 0.0 1.0
2
0.1 0.9
4
0.95 0.05 0.0 1.0
8
0.8 0.2 0.8 0.2 0.8 0.2 8e-05 0.99992
2
0.5 0.5
8
0.8 0.2 0.8 0.2 0.8 0.2 8e-05 0.99992
2
0.5 0.5
8
0.9 0.1 0.9 0.1 0.9 0.1 9e-05 0.99991
2
0.5 0.5
8
0.8 0.2 0.8 0.2 0.8 0.2 8e-05 0.99992
2
0.5 0.5
16
0.8 0.2 0.8 0.2 0.8 0.2 0.8 0.2 0.8 0.2 0.8 0.2 0.8 0.2 8e-05 0.99992
2
0.5 0.5
8
0.8 0.2 0.8 0.2 0.8 0.2 8e-05 0.99992
4
0.9 0.1 0.0 1.0
8
0.8 0.2 0.8 0.2 0.8 0.2 8e-05 0.99992
8
0.9 0.1 0.9 0.1 0.9 0.1 9e-05 0.99991
8
0.8 0.2 0.8 0.2 0.8 0.2 8e-05 0.99992
8
0.9 0.1 0.9 0.1 0.9 0.1 9e-05 0.99991
2
0.5 0.5
32
0.9 0.1 0.9 0.1 0.9 0.1 0.9 0.1 0.9 0.1 0.9 0.1 0.9 0.1 0.9 0.1 0.9 0.1 0.9 0.1 0.9 0.1 0.9 0.1 0.9 0.1 0.9 0.1 0.9 0.1 9e-05 0.99991
16
0.9 0.1 0.9 0.1 0.9 0.1 0.9 0.1 0.9 0.1 0.9 0.1 0.9 0.1 9e-05 0.99991
16
0.9 0.1 0.9 0.1 0.9 0.1 0.9 0.1 0.9 0.1 0.9 0.1 0.9 0.1 9e-05 0.99991
2
0.5 0.5
16
0.7 0.3 0.7 0.3 0.7 0.3 0.7 0.3 0.7 0.3 0.7 0.3 0.7 0.3 7e-05 0.99993
2
0.5 0.5
16
0.9 0.1 0.9 0.1 0.9 0.1 0.9 0.1 0.9 0.1 0.9 0.1 0.9 0.1 9e-05 0.99991
2
0.5 0.5
2
0.646 0.354
4
1.0 0.0 0.0 1.0
64
0.8 0.2 0.8 0.2 0.8 0.2 0.8 0.2 0.8 0.2 0.8 0.2 0.8 0.2 0.8 0.2 0.8 0.2 0.8 0.2 0.8 0.2 0.8 0.2 0.8 0.2 0.8 0.2 0.8 0.2 0.8 0.2 0.8 0.2 0.8 0.2 0.8 0.2 0.8 0.2 0.8 0.2 0.8 0.2 0.8 0.2 0.8 0.2 0.8 0.2 0.8 0.2 0.8 0.2 0.8 0.2 0.8 0.2 0.8 0.2 0.8 0.2 8e-05 0.99992
4
0.8 0.2 0.0 1.0
4
0.2 0.8 1.0 0.0
16
0.8 0.2 0.8 0.2 0.8 0.2 0.8 0.2 0.8 0.2 8e-05 0.99992 0.8 0.2 0.8 0.2
2
0.5 0.5
16
0.8 0.2 0.8 0.2 0.8 0.2 0.8 0.2 0.8 0.2 0.8 0.2 0.8 0.2 8e-05 0.99992
2
0.3 0.7
32
0.9 0.1 0.9 0.1 0.9 0.1 0.9 0.1 0.9 0.1 0.9 0.1 0.9 0.1 0.9 0.1 0.9 0.1 0.9 0.1 0.9 0.1 0.9 0.1 0.9 0.1 0.9 0.1 0.9 0.1 9e-05 0.99991
2
0.3 0.7
8
0.8 0.2 0.8 0.2 0.8 0.2 8e-05 0.99992
16
0.8 0.2 0.8 0.2 0.8 0.2 0.8 0.2 0.8 0.2 0.8 0.2 0.8 0.2 8e-05 0.99992
2
0.7 0.3
8
0.8 0.2 0.8 0.2 0.8 0.2 8e-05 0.99992
2
0.5 0.5
8
0.8 0.2 0.8 0.2 0.8 0.2 8e-05 0.99992
2
0.2 0.8
32
0.9 0.1 0.9 0.1 0.9 0.1 0.9 0.1 0.9 0.1 0.9 0.1 0.9 0.1 0.9 0.1 0.9 0.1 0.9 0.1 0.9 0.1 0.9 0.1 0.9 0.1 0.9 0.1 0.9 0.1 9e-05 0.99991
2
0.5 0.5
16
0.8 0.2 0.8 0.2 0.8 0.2 0.8 0.2 0.8 0.2 0.8 0.2 0.8 0.2 8e-05 0.99992
2
0.5 0.5
8
0.8 0.2 0.8 0.2 0.8 0.2 8e-05 0.99992
8
0.8 0.2 0.8 0.2 0.8 0.2 8e-05 0.99992
8
0.8 0.2 0.8 0.2 0.8 0.2 8e-05 0.99992
2
0.5 0.5
16
0.8 0.2 0.8 0.2 0.8 0.2 0.8 0.2 0.8 0.2 0.8 0.2 0.8 0.2 8e-05 0.99992
2
0.5 0.5
8
0.8 0.2 0.8 0.2 0.8 0.2 8e-05 0.99992
8
0.8 0.2 0.8 0.2 0.8 0.2 8e-05 0.99992
2
0.5 0.5
8
0.8 0.2 0.8 0.2 0.8 0.2 8e-05 0.99992
2
0.6 0.4
8
0.8 0.2 0.8 0.2 0.8 0.2 8e-05 0.99992
2
0.5 0.5
8
1.0 0.0 1.0 0.0 1.0 0.0 0.0001 0.9999
8
1.0 0.0 1.0 0.0 1.0 0.0 0.0001 0.9999
8
0.8 0.2 0.0 1.0 0.0 1.0 0.0 1.0
2
0.5 0.5
8
0.8 0.2 0.8 0.2 0.8 0.2 8e-05 0.99992
8
0.8 0.2 0.8 0.2 0.8 0.2 8e-05 0.99992
8
0.8 0.2 0.8 0.2 0.8 0.2 8e-05 0.99992
2
0.7 0.3
64
0.9 0.1 0.9 0.1 0.9 0.1 0.9 0.1 0.9 0.1 0.9 0.1 0.9 0.1 0.9 0.1 0.9 0.1 0.9 0.1 0.9 0.1 0.9 0.1 0.9 0.1 0.9 0.1 0.9 0.1 0.9 0.1 0.9 0.1 0.9 0.1 0.9 0.1 0.9 0.1 0.9 0.1 0.9 0.1 0.9 0.1 0.9 0.1 0.9 0.1 0.9 0.1 0.9 0.1 0.9 0.1 0.9 0.1 0.9 0.1 0.9 0.1 9e-05 0.99991
8
0.8 0.2 0.8 0.2 0.8 0.2 8e-05 0.99992
2
0.1 0.9
16
0.8 0.2 0.8 0.2 0.8 0.2 0.8 0.2 0.8 0.2 0.8 0.2 0.8 0.2 8e-05 0.99992
2
0.4 0.6
32
0.9 0.1 0.9 0.1 0.9 0.1 0.9 0.1 0.9 0.1 0.9 0.1 0.9 0.1 0.9 0.1 0.9 0.1 0.9 0.1 0.9 0.1 0.9 0.1 0.9 0.1 0.9 0.1 0.9 0.1 9e-05 0.99991
64
0.9 0.1 0.9 0.1 0.9 0.1 0.9 0.1 0.9 0.1 0.9 0.1 0.9 0.1 0.9 0.1 0.9 0.1 0.9 0.1 0.9 0.1 0.9 0.1 0.9 0.1 0.9 0.1 0.9 0.1 0.9 0.1 0.9 0.1 0.9 0.1 0.9 0.1 0.9 0.1 0.9 0.1 0.9 0.1 0.9 0.1 0.9 0.1 0.9 0.1 0.9 0.1 0.9 0.1 0.9 0.1 0.9 0.1 0.9 0.1 0.9 0.1 9e-05 0.99991
2
0.5 0.5
8
0.8 0.2 0.8 0.2 0.8 0.2 8e-05 0.99992
8
0.8 0.2 0.8 0.2 0.8 0.2 8e-05 0.99992
2
0.5 0.5
64
0.9 0.1 0.9 0.1 0.9 0.1 0.9 0.1 0.9 0.1 0.9 0.1 0.9 0.1 0.9 0.1 0.9 0.1 0.9 0.1 0.9 0.1 0.9 0.1 0.9 0.1 0.9 0.1 0.9 0.1 0.9 0.1 0.9 0.1 0.9 0.1 0.9 0.1 0.9 0.1 0.9 0.1 0.9 0.1 0.9 0.1 0.9 0.1 0.9 0.1 0.9 0.1 0.9 0.1 0.9 0.1 0.9 0.1 0.9 0.1 0.9 0.1 9e-05 0.99991
2
0.5 0.5
64
0.9 0.1 0.9 0.1 0.9 0.1 0.9 0.1 0.9 0.1 0.9 0.1 0.9 0.1 0.9 0.1 0.9 0.1 0.9 0.1 0.9 0.1 0.9 0.1 0.9 0.1 0.9 0.1 0.9 0.1 0.9 0.1 0.9 0.1 0.9 0.1 0.9 0.1 0.9 0.1 0.9 0.1 0.9 0.1 0.9 0.1 0.9 0.1 0.9 0.1 0.9 0.1 0.9 0.1 0.9 0.1 0.9 0.1 0.9 0.1 0.9 0.1 9e-05 0.99991
2
0.5 0.5
16
0.9 0.1 0.9 0.1 0.9 0.1 0.9 0.1 0.9 0.1 0.9 0.1 0.9 0.1 9e-05 0.99991
8
0.8 0.2 0.8 0.2 0.8 0.2 8e-05 0.99992
8
0.8 0.2 0.8 0.2 0.8 0.2 8e-05 0.99992
8
1.0 0.0 1.0 0.0 1.0 0.0 0.0001 0.9999
8
1.0 0.0 1.0 0.0 1.0 0.0 0.0001 0.9999
8
0.8 0.2 0.0 1.0 0.0 1.0 0.0 1.0
8
0.8 0.2 0.8 0.2 0.8 0.2 8e-05 0.99992
8
0.8 0.2 0.8 0.2 0.8 0.2 8e-05 0.99992
8
0.8 0.2 0.8 0.2 0.8 0.2 8e-05 0.99992
64
0.9 0.1 0.9 0.1 0.9 0.1 0.9 0.1 0.9 0.1 0.9 0.1 0.9 0.1 0.9 0.1 0.9 0.1 0.9 0.1 0.9 0.1 0.9 0.1 0.9 0.1 0.9 0.1 0.9 0.1 0.9 0.1 0.9 0.1 0.9 0.1 0.9 0.1 0.9 0.1 0.9 0.1 0.9 0.1 0.9 0.1 0.9 0.1 0.9 0.1 0.9 0.1 0.9 0.1 0.9 0.1 0.9 0.1 0.9 0.1 0.9 0.1 9e-05 0.99991
8
0.8 0.2 0.8 0.2 0.8 0.2 8e-05 0.99992
64
0.9 0.1 0.9 0.1 0.9 0.1 0.9 0.1 0.9 0.1 0.9 0.1 0.9 0.1 0.9 0.1 0.9 0.1 0.9 0.1 0.9 0.1 0.9 0.1 0.9 0.1 0.9 0.1 0.9 0.1 0.9 0.1 0.9 0.1 0.9 0.1 0.9 0.1 0.9 0.1 0.9 0.1 0.9 0.1 0.9 0.1 0.9 0.1 0.9 0.1 0.9 0.1 0.9 0.1 0.9 0.1 0.9 0.1 0.9 0.1 0.9 0.1 9e-05 0.99991
64
0.9 0.1 0.9 0.1 0.9 0.1 0.9 0.1 0.9 0.1 0.9 0.1 0.9 0.1 0.9 0.1 0.9 0.1 0.9 0.1 0.9 0.1 0.9 0.1 0.9 0.1 0.9 0.1 0.9 0.1 0.9 0.1 0.9 0.1 0.9 0.1 0.9 0.1 0.9 0.1 0.9 0.1 0.9 0.1 0.9 0.1 0.9 0.1 0.9 0.1 0.9 0.1 0.9 0.1 0.9 0.1 0.9 0.1 0.9 0.1 0.9 0.1 9e-05 0.99991
8
0.8 0.2 0.8 0.2 0.8 0.2 8e-05 0.99992
64
0.9 0.1 0.9 0.1 0.9 0.1 0.9 0.1 0.9 0.1 0.9 0.1 0.9 0.1 0.9 0.1 0.9 0.1 0.9 0.1 0.9 0.1 0.9 0.1 0.9 0.1 0.9 0.1 0.9 0.1 0.9 0.1 0.9 0.1 0.9 0.1 0.9 0.1 0.9 0.1 0.9 0.1 0.9 0.1 0.9 0.1 0.9 0.1 0.9 0.1 0.9 0.1 0.9 0.1 0.9 0.1 0.9 0.1 0.9 0.1 0.9 0.1 9e-05 0.99991
16
0.9 0.1 0.9 0.1 0.9 0.1 0.9 0.1 0.9 0.1 0.9 0.1 0.9 0.1 9e-05 0.99991
16
0.8 0.2 0.8 0.2 0.8 0.2 0.8 0.2 0.8 0.2 0.8 0.2 0.8 0.2 8e-05 0.99992
16
0.8 0.2 0.8 0.2 0.8 0.2 0.8 0.2 0.8 0.2 0.8 0.2 0.8 0.2 8e-05 0.99992
16
0.8 0.2 0.8 0.2 0.8 0.2 0.8 0.2 0.8 0.2 0.8 0.2 0.8 0.2 8e-05 0.99992
8
1.0 0.0 1.0 0.0 1.0 0.0 0.0001 0.9999
8
1.0 0.0 1.0 0.0 1.0 0.0 0.0001 0.9999
8
1.0 0.0 1.0 0.0 1.0 0.0 0.0001 0.9999
16
0.8 0.2 0.0 1.0 0.0 1.0 0.0 1.0 0.0 1.0 0.0 1.0 0.0 1.0 0.0 1.0
2
0.5 0.5
8
0.7 0.3 0.7 0.3 0.7 0.3 7e-05 0.99993
2
0.5 0.5
32
0.8 0.2 0.8 0.2 0.8 0.2 0.8 0.2 0.8 0.2 0.8 0.2 0.8 0.2 0.8 0.2 0.8 0.2 0.8 0.2 0.8 0.2 0.8 0.2 0.8 0.2 0.8 0.2 0.8 0.2 8e-05 0.99992
2
0.5 0.5
8
0.9 0.1 0.9 0.1 0.9 0.1 9e-05 0.99991
8
0.8 0.2 0.8 0.2 0.8 0.2 8e-05 0.99992
64
0.9 0.1 0.9 0.1 0.9 0.1 0.9 0.1 0.9 0.1 0.9 0.1 0.9 0.1 0.9 0.1 0.9 0.1 0.9 0.1 0.9 0.1 0.9 0.1 0.9 0.1 0.9 0.1 0.9 0.1 0.9 0.1 0.9 0.1 0.9 0.1 0.9 0.1 0.9 0.1 0.9 0.1 0.9 0.1 0.9 0.1 0.9 0.1 0.9 0.1 0.9 0.1 0.9 0.1 0.9 0.1 0.9 0.1 0.9 0.1 0.9 0.1 9e-05 0.99991